(set-logic HORN)
(declare-fun state (Int (Array Int Int) (Array Int Int) (Array Int Int) (Array Int Int) Int Int (Array Int Int) (Array Int Int) Int Int Int Int Int Int Int Int Int Int Int Int Int Int Int Int Int Bool Bool Bool Bool Bool (Array Int Int)) Bool)
(assert (forall ((|hhv_ULTIMATE.start_ULTIMATE.startEXIT_0_Int| Int) (|hhv_ULTIMATE.start_ULTIMATE.startEXIT_1_Array_Int_Int| (Array Int Int)) (|hhv_ULTIMATE.start_ULTIMATE.startEXIT_2_Array_Int_Int| (Array Int Int)) (|hhv_ULTIMATE.start_ULTIMATE.startEXIT_3_Array_Int_Array_Int_Int| (Array Int Int)) (|hhv_ULTIMATE.start_ULTIMATE.startEXIT_4_Array_Int_Array_Int_Int| (Array Int Int)) (|hhv_ULTIMATE.start_ULTIMATE.startEXIT_5_Int| Int) (|hhv_ULTIMATE.start_ULTIMATE.startEXIT_6_Int| Int) (|hhv_ULTIMATE.start_ULTIMATE.startEXIT_7_Array_Int_Int| (Array Int Int)) (|hhv_ULTIMATE.start_ULTIMATE.startEXIT_8_Array_Int_Int| (Array Int Int)) (|hhv_ULTIMATE.start_ULTIMATE.startEXIT_9_Int| Int) (|hhv_ULTIMATE.start_ULTIMATE.startEXIT_10_Int| Int) (|hhv_ULTIMATE.start_ULTIMATE.startEXIT_11_Int| Int) (|hhv_ULTIMATE.start_ULTIMATE.startEXIT_12_Int| Int) (|hhv_ULTIMATE.start_ULTIMATE.startEXIT_13_Int| Int) (|hhv_ULTIMATE.start_ULTIMATE.startEXIT_14_Int| Int) (|hhv_ULTIMATE.start_ULTIMATE.startEXIT_15_Int| Int) (|hhv_ULTIMATE.start_ULTIMATE.startEXIT_16_Int| Int) (|hhv_ULTIMATE.start_ULTIMATE.startEXIT_17_Int| Int) (|hhv_ULTIMATE.start_ULTIMATE.startEXIT_18_Int| Int) (|hhv_ULTIMATE.start_ULTIMATE.startEXIT_19_Int| Int) (|hhv_ULTIMATE.start_ULTIMATE.startEXIT_20_Int| Int) (|hhv_ULTIMATE.start_ULTIMATE.startEXIT_21_Int| Int) (|hhv_ULTIMATE.start_ULTIMATE.startEXIT_22_Int| Int) (|hhv_ULTIMATE.start_ULTIMATE.startEXIT_23_Int| Int) (|hhv_ULTIMATE.start_ULTIMATE.startEXIT_24_Int| Int) (|hhv_ULTIMATE.start_ULTIMATE.startEXIT_25_Int| Int) (|hbv_ULTIMATE.start_L2-1_26_Bool| Bool) (|.loc.5| Bool) (|.loc.6| Bool) (|.loc.7| Bool) (|.loc.8| Bool) (|hbv_ULTIMATE.start_L-1_1_Array_Int_Int| (Array Int Int)) (|.x.356| Int) (|.x.354| (Array Int Int)) (|.x.352| Int) (|.x.350| (Array Int Int)) (|.x.346| Int) (|.x.348| (Array Int Int)) (|.x.347| (Array Int Int)) (|hhv_ULTIMATE.start_ULTIMATE.startEXIT_26_Bool| Bool) (|.x.357| Int) (|.x.363| Int) (|.x.364| Int) (|.x.365| Int) (|.x.367| Int) (|.x.369| Int) (|.loc.12| Bool) (|.loc.10| Bool) (|.loc.11| Bool) (|.x.368| Int) (|.x.358| Int) (|.x.370| Int) (|.x.371| Int) (|.loc.9| Bool) (|.x.362| Int) (|.x.359| Int) (|.x.360| Int) (|.x.349| (Array Int Int)) (|.x.361| Int) (|.x.366| Int) (|.x.355| Int) (|.x.351| Int) (|.x.353| (Array Int Int)) (|.xtv.1| (Array Int Int))) (=> (and (and (and (and .loc.5 (not .loc.6)) (not .loc.7)) (not .loc.8)) (and (and (and (and (and (not hbv_ULTIMATE.start_L2-1_26_Bool) (= hhv_ULTIMATE.start_ULTIMATE.startEXIT_1_Array_Int_Int hhv_ULTIMATE.start_ULTIMATE.startEXIT_2_Array_Int_Int)) (= hhv_ULTIMATE.start_ULTIMATE.startEXIT_7_Array_Int_Int hhv_ULTIMATE.start_ULTIMATE.startEXIT_8_Array_Int_Int)) (= hhv_ULTIMATE.start_ULTIMATE.startEXIT_5_Int hhv_ULTIMATE.start_ULTIMATE.startEXIT_6_Int)) (= hhv_ULTIMATE.start_ULTIMATE.startEXIT_3_Array_Int_Array_Int_Int hhv_ULTIMATE.start_ULTIMATE.startEXIT_4_Array_Int_Array_Int_Int)) (= hhv_ULTIMATE.start_ULTIMATE.startEXIT_9_Int hhv_ULTIMATE.start_ULTIMATE.startEXIT_10_Int))) (state |hhv_ULTIMATE.start_ULTIMATE.startEXIT_0_Int| |hhv_ULTIMATE.start_ULTIMATE.startEXIT_1_Array_Int_Int| |hhv_ULTIMATE.start_ULTIMATE.startEXIT_2_Array_Int_Int| |hhv_ULTIMATE.start_ULTIMATE.startEXIT_3_Array_Int_Array_Int_Int| |hhv_ULTIMATE.start_ULTIMATE.startEXIT_4_Array_Int_Array_Int_Int| |hhv_ULTIMATE.start_ULTIMATE.startEXIT_5_Int| |hhv_ULTIMATE.start_ULTIMATE.startEXIT_6_Int| |hhv_ULTIMATE.start_ULTIMATE.startEXIT_7_Array_Int_Int| |hhv_ULTIMATE.start_ULTIMATE.startEXIT_8_Array_Int_Int| |hhv_ULTIMATE.start_ULTIMATE.startEXIT_9_Int| |hhv_ULTIMATE.start_ULTIMATE.startEXIT_10_Int| |hhv_ULTIMATE.start_ULTIMATE.startEXIT_11_Int| |hhv_ULTIMATE.start_ULTIMATE.startEXIT_12_Int| |hhv_ULTIMATE.start_ULTIMATE.startEXIT_13_Int| |hhv_ULTIMATE.start_ULTIMATE.startEXIT_14_Int| |hhv_ULTIMATE.start_ULTIMATE.startEXIT_15_Int| |hhv_ULTIMATE.start_ULTIMATE.startEXIT_16_Int| |hhv_ULTIMATE.start_ULTIMATE.startEXIT_17_Int| |hhv_ULTIMATE.start_ULTIMATE.startEXIT_18_Int| |hhv_ULTIMATE.start_ULTIMATE.startEXIT_19_Int| |hhv_ULTIMATE.start_ULTIMATE.startEXIT_20_Int| |hhv_ULTIMATE.start_ULTIMATE.startEXIT_21_Int| |hhv_ULTIMATE.start_ULTIMATE.startEXIT_22_Int| |hhv_ULTIMATE.start_ULTIMATE.startEXIT_23_Int| |hhv_ULTIMATE.start_ULTIMATE.startEXIT_24_Int| |hhv_ULTIMATE.start_ULTIMATE.startEXIT_25_Int| |hbv_ULTIMATE.start_L2-1_26_Bool| |.loc.5| |.loc.6| |.loc.7| |.loc.8| |hbv_ULTIMATE.start_L-1_1_Array_Int_Int|))))
(assert (forall ((|hhv_ULTIMATE.start_ULTIMATE.startEXIT_0_Int| Int) (|hhv_ULTIMATE.start_ULTIMATE.startEXIT_1_Array_Int_Int| (Array Int Int)) (|hhv_ULTIMATE.start_ULTIMATE.startEXIT_2_Array_Int_Int| (Array Int Int)) (|hhv_ULTIMATE.start_ULTIMATE.startEXIT_3_Array_Int_Array_Int_Int| (Array Int Int)) (|hhv_ULTIMATE.start_ULTIMATE.startEXIT_4_Array_Int_Array_Int_Int| (Array Int Int)) (|hhv_ULTIMATE.start_ULTIMATE.startEXIT_5_Int| Int) (|hhv_ULTIMATE.start_ULTIMATE.startEXIT_6_Int| Int) (|hhv_ULTIMATE.start_ULTIMATE.startEXIT_7_Array_Int_Int| (Array Int Int)) (|hhv_ULTIMATE.start_ULTIMATE.startEXIT_8_Array_Int_Int| (Array Int Int)) (|hhv_ULTIMATE.start_ULTIMATE.startEXIT_9_Int| Int) (|hhv_ULTIMATE.start_ULTIMATE.startEXIT_10_Int| Int) (|hhv_ULTIMATE.start_ULTIMATE.startEXIT_11_Int| Int) (|hhv_ULTIMATE.start_ULTIMATE.startEXIT_12_Int| Int) (|hhv_ULTIMATE.start_ULTIMATE.startEXIT_13_Int| Int) (|hhv_ULTIMATE.start_ULTIMATE.startEXIT_14_Int| Int) (|hhv_ULTIMATE.start_ULTIMATE.startEXIT_15_Int| Int) (|hhv_ULTIMATE.start_ULTIMATE.startEXIT_16_Int| Int) (|hhv_ULTIMATE.start_ULTIMATE.startEXIT_17_Int| Int) (|hhv_ULTIMATE.start_ULTIMATE.startEXIT_18_Int| Int) (|hhv_ULTIMATE.start_ULTIMATE.startEXIT_19_Int| Int) (|hhv_ULTIMATE.start_ULTIMATE.startEXIT_20_Int| Int) (|hhv_ULTIMATE.start_ULTIMATE.startEXIT_21_Int| Int) (|hhv_ULTIMATE.start_ULTIMATE.startEXIT_22_Int| Int) (|hhv_ULTIMATE.start_ULTIMATE.startEXIT_23_Int| Int) (|hhv_ULTIMATE.start_ULTIMATE.startEXIT_24_Int| Int) (|hhv_ULTIMATE.start_ULTIMATE.startEXIT_25_Int| Int) (|hbv_ULTIMATE.start_L2-1_26_Bool| Bool) (|.loc.5| Bool) (|.loc.6| Bool) (|.loc.7| Bool) (|.loc.8| Bool) (|hbv_ULTIMATE.start_L-1_1_Array_Int_Int| (Array Int Int)) (|.x.356| Int) (|.x.354| (Array Int Int)) (|.x.352| Int) (|.x.350| (Array Int Int)) (|.x.346| Int) (|.x.348| (Array Int Int)) (|.x.347| (Array Int Int)) (|hhv_ULTIMATE.start_ULTIMATE.startEXIT_26_Bool| Bool) (|.x.357| Int) (|.x.363| Int) (|.x.364| Int) (|.x.365| Int) (|.x.367| Int) (|.x.369| Int) (|.loc.12| Bool) (|.loc.10| Bool) (|.loc.11| Bool) (|.x.368| Int) (|.x.358| Int) (|.x.370| Int) (|.x.371| Int) (|.loc.9| Bool) (|.x.362| Int) (|.x.359| Int) (|.x.360| Int) (|.x.349| (Array Int Int)) (|.x.361| Int) (|.x.366| Int) (|.x.355| Int) (|.x.351| Int) (|.x.353| (Array Int Int)) (|.xtv.1| (Array Int Int))) (=> (and (state |hhv_ULTIMATE.start_ULTIMATE.startEXIT_0_Int| |hhv_ULTIMATE.start_ULTIMATE.startEXIT_1_Array_Int_Int| |hhv_ULTIMATE.start_ULTIMATE.startEXIT_2_Array_Int_Int| |hhv_ULTIMATE.start_ULTIMATE.startEXIT_3_Array_Int_Array_Int_Int| |hhv_ULTIMATE.start_ULTIMATE.startEXIT_4_Array_Int_Array_Int_Int| |hhv_ULTIMATE.start_ULTIMATE.startEXIT_5_Int| |hhv_ULTIMATE.start_ULTIMATE.startEXIT_6_Int| |hhv_ULTIMATE.start_ULTIMATE.startEXIT_7_Array_Int_Int| |hhv_ULTIMATE.start_ULTIMATE.startEXIT_8_Array_Int_Int| |hhv_ULTIMATE.start_ULTIMATE.startEXIT_9_Int| |hhv_ULTIMATE.start_ULTIMATE.startEXIT_10_Int| |hhv_ULTIMATE.start_ULTIMATE.startEXIT_11_Int| |hhv_ULTIMATE.start_ULTIMATE.startEXIT_12_Int| |hhv_ULTIMATE.start_ULTIMATE.startEXIT_13_Int| |hhv_ULTIMATE.start_ULTIMATE.startEXIT_14_Int| |hhv_ULTIMATE.start_ULTIMATE.startEXIT_15_Int| |hhv_ULTIMATE.start_ULTIMATE.startEXIT_16_Int| |hhv_ULTIMATE.start_ULTIMATE.startEXIT_17_Int| |hhv_ULTIMATE.start_ULTIMATE.startEXIT_18_Int| |hhv_ULTIMATE.start_ULTIMATE.startEXIT_19_Int| |hhv_ULTIMATE.start_ULTIMATE.startEXIT_20_Int| |hhv_ULTIMATE.start_ULTIMATE.startEXIT_21_Int| |hhv_ULTIMATE.start_ULTIMATE.startEXIT_22_Int| |hhv_ULTIMATE.start_ULTIMATE.startEXIT_23_Int| |hhv_ULTIMATE.start_ULTIMATE.startEXIT_24_Int| |hhv_ULTIMATE.start_ULTIMATE.startEXIT_25_Int| |hbv_ULTIMATE.start_L2-1_26_Bool| |.loc.5| |.loc.6| |.loc.7| |.loc.8| |hbv_ULTIMATE.start_L-1_1_Array_Int_Int|) (let ((.def_42 (not .loc.6))) (let ((.def_44 (not .loc.7))) (let ((.def_79 (= hhv_ULTIMATE.start_ULTIMATE.startEXIT_1_Array_Int_Int .x.347))) (let ((.def_83 (= hhv_ULTIMATE.start_ULTIMATE.startEXIT_11_Int .x.357))) (let ((.def_86 (= hhv_ULTIMATE.start_ULTIMATE.startEXIT_17_Int .x.363))) (let ((.def_89 (= hhv_ULTIMATE.start_ULTIMATE.startEXIT_18_Int .x.364))) (let ((.def_92 (= hhv_ULTIMATE.start_ULTIMATE.startEXIT_19_Int .x.365))) (let ((.def_95 (= hhv_ULTIMATE.start_ULTIMATE.startEXIT_21_Int .x.367))) (let ((.def_98 (= hhv_ULTIMATE.start_ULTIMATE.startEXIT_23_Int .x.369))) (let ((.def_100 (not .loc.5))) (let ((.def_112 (= hbv_ULTIMATE.start_L2-1_26_Bool hhv_ULTIMATE.start_ULTIMATE.startEXIT_26_Bool))) (let ((.def_119 (not .loc.10))) (let ((.def_122 (not .loc.11))) (let ((.def_125 (= hhv_ULTIMATE.start_ULTIMATE.startEXIT_12_Int 0))) (let ((.def_127 (and .def_79 .def_83))) (let ((.def_132 (and .def_98 (and .def_95 (and .def_92 (and .def_89 (and .def_86 .def_127))))))) (let ((.def_137 (not .loc.12))) (let ((.def_143 (= hhv_ULTIMATE.start_ULTIMATE.startEXIT_22_Int .x.368))) (let ((.def_145 (= hhv_ULTIMATE.start_ULTIMATE.startEXIT_12_Int .x.358))) (let ((.def_148 (= hhv_ULTIMATE.start_ULTIMATE.startEXIT_24_Int .x.370))) (let ((.def_151 (= hhv_ULTIMATE.start_ULTIMATE.startEXIT_25_Int .x.371))) (let ((.def_154 (not .loc.9))) (let ((.def_159 (<= 100000 hhv_ULTIMATE.start_ULTIMATE.startEXIT_16_Int))) (let ((.def_167 (select hhv_ULTIMATE.start_ULTIMATE.startEXIT_3_Array_Int_Array_Int_Int hhv_ULTIMATE.start_ULTIMATE.startEXIT_21_Int))) (let ((.def_178 (select hhv_ULTIMATE.start_ULTIMATE.startEXIT_3_Array_Int_Array_Int_Int hhv_ULTIMATE.start_ULTIMATE.startEXIT_18_Int))) (let ((.def_196 (= hhv_ULTIMATE.start_ULTIMATE.startEXIT_16_Int .x.362))) (let ((.def_198 (= hhv_ULTIMATE.start_ULTIMATE.startEXIT_13_Int .x.359))) (let ((.def_207 (and .def_127 .def_145))) (let ((.def_226 (and .def_198 .def_207))) (let ((.def_245 (and hbv_ULTIMATE.start_L2-1_26_Bool .def_79))) (let ((.def_257 (and .def_151 (and .def_148 (and .def_98 (and .def_143 (and .def_95 (and .def_92 (and .def_89 (and .def_86 (and .def_196 (and .def_198 (and .def_145 (and .def_83 .def_245)))))))))))))) (let ((.def_276 (and .def_151 (and .def_148 (and .def_98 (and .def_143 (and .def_95 (and .def_92 (and .def_89 (and .def_86 (and .def_196 .def_226))))))))))) (let ((.def_296 (<= 100000 hhv_ULTIMATE.start_ULTIMATE.startEXIT_14_Int))) (let ((.def_299 (and .def_100 (and .loc.6 .def_276)))) (let ((.def_309 (= hhv_ULTIMATE.start_ULTIMATE.startEXIT_14_Int .x.360))) (let ((.def_311 (= hhv_ULTIMATE.start_ULTIMATE.startEXIT_3_Array_Int_Array_Int_Int .x.349))) (let ((.def_314 (= hhv_ULTIMATE.start_ULTIMATE.startEXIT_15_Int .x.361))) (let ((.def_317 (= hhv_ULTIMATE.start_ULTIMATE.startEXIT_20_Int .x.366))) (let ((.def_422 (store hbv_ULTIMATE.start_L-1_1_Array_Int_Int .x.364 1))) (and (and (not .loc.8) (and (= hhv_ULTIMATE.start_ULTIMATE.startEXIT_10_Int .x.356) (and (= hhv_ULTIMATE.start_ULTIMATE.startEXIT_8_Array_Int_Int .x.354) (and (= hhv_ULTIMATE.start_ULTIMATE.startEXIT_6_Int .x.352) (and (= hhv_ULTIMATE.start_ULTIMATE.startEXIT_4_Array_Int_Array_Int_Int .x.350) (and (= hhv_ULTIMATE.start_ULTIMATE.startEXIT_0_Int .x.346) (= hhv_ULTIMATE.start_ULTIMATE.startEXIT_2_Array_Int_Int .x.348))))))) (or (and (or (or (or (and (or (or (or (or (or (or (and (or (and (or (and (or (and (and (and (and (and (and (and (and .def_79 hhv_ULTIMATE.start_ULTIMATE.startEXIT_26_Bool) .def_83) .def_86) .def_89) .def_92) .def_95) .def_98) .def_100) (and (or hbv_ULTIMATE.start_L2-1_26_Bool (and (= .x.365 0) (= .x.347 (store (store hhv_ULTIMATE.start_ULTIMATE.startEXIT_1_Array_Int_Int hhv_ULTIMATE.start_ULTIMATE.startEXIT_18_Int 0) hhv_ULTIMATE.start_ULTIMATE.startEXIT_21_Int 0)))) (and (and .loc.5 (or hhv_ULTIMATE.start_ULTIMATE.startEXIT_26_Bool (= .x.363 .x.365))) .def_112))) (and (and (and .loc.6 .loc.12) .def_119) .def_122)) (and (or hbv_ULTIMATE.start_L2-1_26_Bool .def_125) (and .def_42 (and (and .def_112 (and .loc.11 (and .loc.10 (and .loc.5 .def_132)))) .def_137)))) (and (and (and (and .def_143 .def_145) .def_148) .def_151) .def_154)) (and (or hbv_ULTIMATE.start_L2-1_26_Bool (and (= .x.368 .x.358) (and (not .def_159) (and (= .x.370 (select .def_167 (+ (+ (* (- 4) hhv_ULTIMATE.start_ULTIMATE.startEXIT_16_Int) hhv_ULTIMATE.start_ULTIMATE.startEXIT_23_Int) 399996))) (and (= .x.368 (ite (= .x.370 .x.371) 1 0)) (= .x.371 (select .def_178 (+ hhv_ULTIMATE.start_ULTIMATE.startEXIT_11_Int (* 4 hhv_ULTIMATE.start_ULTIMATE.startEXIT_16_Int))))))))) (and .def_42 (and .def_137 (and .def_112 (and .def_119 (and .loc.11 (and .loc.9 (and .def_100 .def_132))))))))) (and .loc.7 (and .def_196 .def_198))) (and (or hhv_ULTIMATE.start_ULTIMATE.startEXIT_26_Bool (= (+ hhv_ULTIMATE.start_ULTIMATE.startEXIT_16_Int (* (- 1) .x.362)) (- 1))) (and .def_44 (and .def_42 (and .def_137 (and .def_112 (and .def_119 (and .def_154 (and .loc.11 (and .def_100 (and .def_98 (and .def_143 (and .def_95 (and .def_92 (and .def_89 (and .def_86 .def_207)))))))))))))))) (and (or hbv_ULTIMATE.start_L2-1_26_Bool (= .x.362 0)) (and .def_44 (and .def_137 (and .def_112 (and .def_119 (and .def_154 (and .loc.11 (and .loc.6 (and .loc.5 (and .def_151 (and .def_148 (and .def_98 (and .def_143 (and .def_95 (and .def_92 (and .def_89 (and .def_86 .def_226)))))))))))))))))) (and .def_42 (and .def_137 (and .def_112 (and .loc.11 (and .loc.10 (and .loc.9 (and .def_100 (and .loc.7 .def_257))))))))) (and (or hbv_ULTIMATE.start_L2-1_26_Bool .def_159) (and .def_42 (and .def_137 (and .def_112 (and .loc.11 (and .loc.10 (and .loc.9 (and .def_100 (and .loc.7 .def_276)))))))))) (and .def_44 (and .def_137 (and .def_112 (and .def_122 (and .loc.10 (and .loc.9 (and .def_100 (and .loc.6 .def_257))))))))) (and (or hbv_ULTIMATE.start_L2-1_26_Bool .def_296) (and .def_44 (and .def_137 (and .def_112 (and .def_122 (and .loc.10 (and .loc.9 .def_299)))))))) (and (and (and .def_309 .def_311) .def_314) .def_317)) (and (or hbv_ULTIMATE.start_L2-1_26_Bool (and (= .x.349 (store hhv_ULTIMATE.start_ULTIMATE.startEXIT_3_Array_Int_Array_Int_Int hhv_ULTIMATE.start_ULTIMATE.startEXIT_21_Int (store .def_167 (+ (* 4 hhv_ULTIMATE.start_ULTIMATE.startEXIT_14_Int) hhv_ULTIMATE.start_ULTIMATE.startEXIT_23_Int) (select .def_178 (+ (+ hhv_ULTIMATE.start_ULTIMATE.startEXIT_11_Int (* (- 4) hhv_ULTIMATE.start_ULTIMATE.startEXIT_14_Int)) 399996))))) (not .def_296))) (and (or hhv_ULTIMATE.start_ULTIMATE.startEXIT_26_Bool (= (+ hhv_ULTIMATE.start_ULTIMATE.startEXIT_14_Int (* (- 1) .x.360)) (- 1))) (and .def_44 (and .def_137 (and .def_112 (and .def_122 (and .def_154 (and .loc.10 .def_299))))))))) (and (or hbv_ULTIMATE.start_L2-1_26_Bool (not .def_125)) (and .def_42 (and .def_137 (and .def_112 (and .def_122 (and .def_119 (and .def_154 (and .loc.7 (and .loc.5 (and .def_151 (and .def_148 (and .def_98 (and .def_143 (and .def_95 (and .def_317 (and .def_92 (and .def_89 (and .def_86 (and .def_196 (and .def_314 (and .def_309 (and .def_198 (and .def_145 (and .def_83 (and .def_79 .def_311)))))))))))))))))))))))))) (and .def_137 (and .def_112 (and .def_122 (and .def_119 (and .def_154 (and .def_100 (and .loc.7 (and .loc.6 (and .def_151 (and .def_148 (and .def_98 (and .def_143 (and .def_95 (and .def_317 (and .def_92 (and .def_89 (and .def_86 (and .def_196 (and .def_314 (and .def_309 (and .def_198 (and .def_145 (and .def_83 (and .def_245 .def_311))))))))))))))))))))))))) (and (= hhv_ULTIMATE.start_ULTIMATE.startEXIT_9_Int .x.355) (and (= hhv_ULTIMATE.start_ULTIMATE.startEXIT_5_Int .x.351) (= hhv_ULTIMATE.start_ULTIMATE.startEXIT_7_Array_Int_Int .x.353)))) (and (or hbv_ULTIMATE.start_L2-1_26_Bool (and (and (= .x.351 0) (= .x.355 0)) (= hbv_ULTIMATE.start_L-1_1_Array_Int_Int (store hhv_ULTIMATE.start_ULTIMATE.startEXIT_1_Array_Int_Int 0 0)))) (and (or hhv_ULTIMATE.start_ULTIMATE.startEXIT_26_Bool (and (and (and (and (and (and (and (and (and (= .x.353 (store (store hhv_ULTIMATE.start_ULTIMATE.startEXIT_7_Array_Int_Int .x.364 400000) .x.367 400000)) (and (not (= .x.367 0)) (= (select .def_422 .x.367) 0))) (= .x.347 (store .def_422 .x.367 1))) (not (= .x.364 0))) (= .x.360 0)) (= .x.369 0)) (= .x.357 0)) (not (<= .x.346 .x.364))) (not (<= .x.346 .x.367))) (= (select hbv_ULTIMATE.start_L-1_1_Array_Int_Int .x.364) 0))) (and .def_44 (and .def_42 (and .def_137 (and .def_112 (and .def_122 (and .def_154 (and .loc.10 (and .loc.5 (and .def_143 (and .def_86 (and .def_145 .def_311))))))))))))))))))))))))))))))))))))))))))))))))))))))) (state |.x.346| |.x.347| |.x.348| |.x.349| |.x.350| |.x.351| |.x.352| |.x.353| |.x.354| |.x.355| |.x.356| |.x.357| |.x.358| |.x.359| |.x.360| |.x.361| |.x.362| |.x.363| |.x.364| |.x.365| |.x.366| |.x.367| |.x.368| |.x.369| |.x.370| |.x.371| |hhv_ULTIMATE.start_ULTIMATE.startEXIT_26_Bool| |.loc.9| |.loc.10| |.loc.11| |.loc.12| |.xtv.1|))))
(assert (forall ((|hhv_ULTIMATE.start_ULTIMATE.startEXIT_0_Int| Int) (|hhv_ULTIMATE.start_ULTIMATE.startEXIT_1_Array_Int_Int| (Array Int Int)) (|hhv_ULTIMATE.start_ULTIMATE.startEXIT_2_Array_Int_Int| (Array Int Int)) (|hhv_ULTIMATE.start_ULTIMATE.startEXIT_3_Array_Int_Array_Int_Int| (Array Int Int)) (|hhv_ULTIMATE.start_ULTIMATE.startEXIT_4_Array_Int_Array_Int_Int| (Array Int Int)) (|hhv_ULTIMATE.start_ULTIMATE.startEXIT_5_Int| Int) (|hhv_ULTIMATE.start_ULTIMATE.startEXIT_6_Int| Int) (|hhv_ULTIMATE.start_ULTIMATE.startEXIT_7_Array_Int_Int| (Array Int Int)) (|hhv_ULTIMATE.start_ULTIMATE.startEXIT_8_Array_Int_Int| (Array Int Int)) (|hhv_ULTIMATE.start_ULTIMATE.startEXIT_9_Int| Int) (|hhv_ULTIMATE.start_ULTIMATE.startEXIT_10_Int| Int) (|hhv_ULTIMATE.start_ULTIMATE.startEXIT_11_Int| Int) (|hhv_ULTIMATE.start_ULTIMATE.startEXIT_12_Int| Int) (|hhv_ULTIMATE.start_ULTIMATE.startEXIT_13_Int| Int) (|hhv_ULTIMATE.start_ULTIMATE.startEXIT_14_Int| Int) (|hhv_ULTIMATE.start_ULTIMATE.startEXIT_15_Int| Int) (|hhv_ULTIMATE.start_ULTIMATE.startEXIT_16_Int| Int) (|hhv_ULTIMATE.start_ULTIMATE.startEXIT_17_Int| Int) (|hhv_ULTIMATE.start_ULTIMATE.startEXIT_18_Int| Int) (|hhv_ULTIMATE.start_ULTIMATE.startEXIT_19_Int| Int) (|hhv_ULTIMATE.start_ULTIMATE.startEXIT_20_Int| Int) (|hhv_ULTIMATE.start_ULTIMATE.startEXIT_21_Int| Int) (|hhv_ULTIMATE.start_ULTIMATE.startEXIT_22_Int| Int) (|hhv_ULTIMATE.start_ULTIMATE.startEXIT_23_Int| Int) (|hhv_ULTIMATE.start_ULTIMATE.startEXIT_24_Int| Int) (|hhv_ULTIMATE.start_ULTIMATE.startEXIT_25_Int| Int) (|hbv_ULTIMATE.start_L2-1_26_Bool| Bool) (|.loc.5| Bool) (|.loc.6| Bool) (|.loc.7| Bool) (|.loc.8| Bool) (|hbv_ULTIMATE.start_L-1_1_Array_Int_Int| (Array Int Int)) (|.x.356| Int) (|.x.354| (Array Int Int)) (|.x.352| Int) (|.x.350| (Array Int Int)) (|.x.346| Int) (|.x.348| (Array Int Int)) (|.x.347| (Array Int Int)) (|hhv_ULTIMATE.start_ULTIMATE.startEXIT_26_Bool| Bool) (|.x.357| Int) (|.x.363| Int) (|.x.364| Int) (|.x.365| Int) (|.x.367| Int) (|.x.369| Int) (|.loc.12| Bool) (|.loc.10| Bool) (|.loc.11| Bool) (|.x.368| Int) (|.x.358| Int) (|.x.370| Int) (|.x.371| Int) (|.loc.9| Bool) (|.x.362| Int) (|.x.359| Int) (|.x.360| Int) (|.x.349| (Array Int Int)) (|.x.361| Int) (|.x.366| Int) (|.x.355| Int) (|.x.351| Int) (|.x.353| (Array Int Int)) (|.xtv.1| (Array Int Int))) (=> (state |hhv_ULTIMATE.start_ULTIMATE.startEXIT_0_Int| |hhv_ULTIMATE.start_ULTIMATE.startEXIT_1_Array_Int_Int| |hhv_ULTIMATE.start_ULTIMATE.startEXIT_2_Array_Int_Int| |hhv_ULTIMATE.start_ULTIMATE.startEXIT_3_Array_Int_Array_Int_Int| |hhv_ULTIMATE.start_ULTIMATE.startEXIT_4_Array_Int_Array_Int_Int| |hhv_ULTIMATE.start_ULTIMATE.startEXIT_5_Int| |hhv_ULTIMATE.start_ULTIMATE.startEXIT_6_Int| |hhv_ULTIMATE.start_ULTIMATE.startEXIT_7_Array_Int_Int| |hhv_ULTIMATE.start_ULTIMATE.startEXIT_8_Array_Int_Int| |hhv_ULTIMATE.start_ULTIMATE.startEXIT_9_Int| |hhv_ULTIMATE.start_ULTIMATE.startEXIT_10_Int| |hhv_ULTIMATE.start_ULTIMATE.startEXIT_11_Int| |hhv_ULTIMATE.start_ULTIMATE.startEXIT_12_Int| |hhv_ULTIMATE.start_ULTIMATE.startEXIT_13_Int| |hhv_ULTIMATE.start_ULTIMATE.startEXIT_14_Int| |hhv_ULTIMATE.start_ULTIMATE.startEXIT_15_Int| |hhv_ULTIMATE.start_ULTIMATE.startEXIT_16_Int| |hhv_ULTIMATE.start_ULTIMATE.startEXIT_17_Int| |hhv_ULTIMATE.start_ULTIMATE.startEXIT_18_Int| |hhv_ULTIMATE.start_ULTIMATE.startEXIT_19_Int| |hhv_ULTIMATE.start_ULTIMATE.startEXIT_20_Int| |hhv_ULTIMATE.start_ULTIMATE.startEXIT_21_Int| |hhv_ULTIMATE.start_ULTIMATE.startEXIT_22_Int| |hhv_ULTIMATE.start_ULTIMATE.startEXIT_23_Int| |hhv_ULTIMATE.start_ULTIMATE.startEXIT_24_Int| |hhv_ULTIMATE.start_ULTIMATE.startEXIT_25_Int| |hbv_ULTIMATE.start_L2-1_26_Bool| |.loc.5| |.loc.6| |.loc.7| |.loc.8| |hbv_ULTIMATE.start_L-1_1_Array_Int_Int|) (not (and hbv_ULTIMATE.start_L2-1_26_Bool (and .loc.8 (and (not .loc.7) (and (not .loc.6) (not .loc.5)))))))))
(check-sat)
